c FILE:  brock200_2.b
c
c Graph Generator
c
c By: Mark Brockington (brock@cs.ualberta.ca)
c and Joe Culberson (joe@cs.ualberta.ca)
c
c Graph Size:200, Clique Size: 12
c Seed:20, Edge Density:  0.50000
c Depth 1 Hiding
c
c Clique Elements are:
c 26 120 119 157 69 182 47 148 104 134 
c 54 144 
c
c Estimated Size of Uncompressed File:   0.1MB
c
p cnf 40 770
1 3 0
-1 -3 0
1 5 0
-1 -5 0
1 6 0
-1 -6 0
1 11 0
-1 -11 0
1 13 0
-1 -13 0
1 15 0
-1 -15 0
1 19 0
-1 -19 0
1 22 0
-1 -22 0
1 23 0
-1 -23 0
1 26 0
-1 -26 0
1 29 0
-1 -29 0
1 30 0
-1 -30 0
1 31 0
-1 -31 0
1 33 0
-1 -33 0
1 35 0
-1 -35 0
1 38 0
-1 -38 0
1 39 0
-1 -39 0
2 3 0
-2 -3 0
2 5 0
-2 -5 0
2 6 0
-2 -6 0
2 11 0
-2 -11 0
2 13 0
-2 -13 0
2 15 0
-2 -15 0
2 17 0
-2 -17 0
2 19 0
-2 -19 0
2 20 0
-2 -20 0
2 27 0
-2 -27 0
2 28 0
-2 -28 0
2 30 0
-2 -30 0
2 32 0
-2 -32 0
2 33 0
-2 -33 0
2 35 0
-2 -35 0
2 36 0
-2 -36 0
2 37 0
-2 -37 0
2 39 0
-2 -39 0
3 5 0
-3 -5 0
3 7 0
-3 -7 0
3 8 0
-3 -8 0
3 11 0
-3 -11 0
3 12 0
-3 -12 0
3 14 0
-3 -14 0
3 15 0
-3 -15 0
3 16 0
-3 -16 0
3 17 0
-3 -17 0
3 18 0
-3 -18 0
3 19 0
-3 -19 0
3 22 0
-3 -22 0
3 24 0
-3 -24 0
3 27 0
-3 -27 0
3 29 0
-3 -29 0
3 30 0
-3 -30 0
3 33 0
-3 -33 0
3 35 0
-3 -35 0
3 40 0
-3 -40 0
4 7 0
-4 -7 0
4 8 0
-4 -8 0
4 9 0
-4 -9 0
4 11 0
-4 -11 0
4 12 0
-4 -12 0
4 16 0
-4 -16 0
4 17 0
-4 -17 0
4 18 0
-4 -18 0
4 20 0
-4 -20 0
4 24 0
-4 -24 0
4 26 0
-4 -26 0
4 29 0
-4 -29 0
4 31 0
-4 -31 0
4 32 0
-4 -32 0
4 35 0
-4 -35 0
4 36 0
-4 -36 0
4 37 0
-4 -37 0
4 38 0
-4 -38 0
4 39 0
-4 -39 0
4 40 0
-4 -40 0
5 9 0
-5 -9 0
5 10 0
-5 -10 0
5 15 0
-5 -15 0
5 16 0
-5 -16 0
5 17 0
-5 -17 0
5 21 0
-5 -21 0
5 27 0
-5 -27 0
5 29 0
-5 -29 0
5 31 0
-5 -31 0
5 32 0
-5 -32 0
5 34 0
-5 -34 0
5 36 0
-5 -36 0
5 38 0
-5 -38 0
5 39 0
-5 -39 0
6 7 0
-6 -7 0
6 9 0
-6 -9 0
6 10 0
-6 -10 0
6 11 0
-6 -11 0
6 12 0
-6 -12 0
6 13 0
-6 -13 0
6 15 0
-6 -15 0
6 20 0
-6 -20 0
6 21 0
-6 -21 0
6 22 0
-6 -22 0
6 23 0
-6 -23 0
6 25 0
-6 -25 0
6 26 0
-6 -26 0
6 30 0
-6 -30 0
6 33 0
-6 -33 0
6 34 0
-6 -34 0
6 36 0
-6 -36 0
6 37 0
-6 -37 0
6 38 0
-6 -38 0
6 39 0
-6 -39 0
6 40 0
-6 -40 0
7 9 0
-7 -9 0
7 11 0
-7 -11 0
7 16 0
-7 -16 0
7 17 0
-7 -17 0
7 18 0
-7 -18 0
7 20 0
-7 -20 0
7 24 0
-7 -24 0
7 25 0
-7 -25 0
7 26 0
-7 -26 0
7 27 0
-7 -27 0
7 29 0
-7 -29 0
7 32 0
-7 -32 0
7 35 0
-7 -35 0
7 36 0
-7 -36 0
7 37 0
-7 -37 0
7 38 0
-7 -38 0
8 9 0
-8 -9 0
8 11 0
-8 -11 0
8 12 0
-8 -12 0
8 15 0
-8 -15 0
8 17 0
-8 -17 0
8 18 0
-8 -18 0
8 23 0
-8 -23 0
8 29 0
-8 -29 0
8 30 0
-8 -30 0
8 31 0
-8 -31 0
8 33 0
-8 -33 0
8 35 0
-8 -35 0
8 36 0
-8 -36 0
8 38 0
-8 -38 0
8 39 0
-8 -39 0
8 40 0
-8 -40 0
9 11 0
-9 -11 0
9 12 0
-9 -12 0
9 15 0
-9 -15 0
9 16 0
-9 -16 0
9 22 0
-9 -22 0
9 23 0
-9 -23 0
9 24 0
-9 -24 0
9 27 0
-9 -27 0
9 29 0
-9 -29 0
9 33 0
-9 -33 0
9 34 0
-9 -34 0
9 35 0
-9 -35 0
10 13 0
-10 -13 0
10 16 0
-10 -16 0
10 17 0
-10 -17 0
10 18 0
-10 -18 0
10 19 0
-10 -19 0
10 20 0
-10 -20 0
10 21 0
-10 -21 0
10 22 0
-10 -22 0
10 24 0
-10 -24 0
10 28 0
-10 -28 0
10 33 0
-10 -33 0
10 34 0
-10 -34 0
10 37 0
-10 -37 0
10 38 0
-10 -38 0
10 40 0
-10 -40 0
11 12 0
-11 -12 0
11 13 0
-11 -13 0
11 14 0
-11 -14 0
11 18 0
-11 -18 0
11 19 0
-11 -19 0
11 20 0
-11 -20 0
11 21 0
-11 -21 0
11 24 0
-11 -24 0
11 25 0
-11 -25 0
11 26 0
-11 -26 0
11 27 0
-11 -27 0
11 29 0
-11 -29 0
11 31 0
-11 -31 0
11 32 0
-11 -32 0
11 33 0
-11 -33 0
11 34 0
-11 -34 0
12 13 0
-12 -13 0
12 14 0
-12 -14 0
12 16 0
-12 -16 0
12 17 0
-12 -17 0
12 18 0
-12 -18 0
12 19 0
-12 -19 0
12 20 0
-12 -20 0
12 24 0
-12 -24 0
12 25 0
-12 -25 0
12 27 0
-12 -27 0
12 31 0
-12 -31 0
12 35 0
-12 -35 0
12 36 0
-12 -36 0
12 37 0
-12 -37 0
12 38 0
-12 -38 0
12 39 0
-12 -39 0
13 17 0
-13 -17 0
13 19 0
-13 -19 0
13 20 0
-13 -20 0
13 22 0
-13 -22 0
13 23 0
-13 -23 0
13 25 0
-13 -25 0
13 26 0
-13 -26 0
13 30 0
-13 -30 0
13 31 0
-13 -31 0
13 33 0
-13 -33 0
13 35 0
-13 -35 0
13 38 0
-13 -38 0
13 39 0
-13 -39 0
14 16 0
-14 -16 0
14 21 0
-14 -21 0
14 22 0
-14 -22 0
14 25 0
-14 -25 0
14 26 0
-14 -26 0
14 27 0
-14 -27 0
14 34 0
-14 -34 0
14 37 0
-14 -37 0
14 38 0
-14 -38 0
14 39 0
-14 -39 0
15 16 0
-15 -16 0
15 19 0
-15 -19 0
15 20 0
-15 -20 0
15 21 0
-15 -21 0
15 24 0
-15 -24 0
15 25 0
-15 -25 0
15 27 0
-15 -27 0
15 28 0
-15 -28 0
15 29 0
-15 -29 0
15 31 0
-15 -31 0
15 32 0
-15 -32 0
15 33 0
-15 -33 0
15 35 0
-15 -35 0
15 39 0
-15 -39 0
15 40 0
-15 -40 0
16 18 0
-16 -18 0
16 19 0
-16 -19 0
16 22 0
-16 -22 0
16 24 0
-16 -24 0
16 26 0
-16 -26 0
16 29 0
-16 -29 0
16 32 0
-16 -32 0
16 33 0
-16 -33 0
16 34 0
-16 -34 0
16 35 0
-16 -35 0
16 36 0
-16 -36 0
16 40 0
-16 -40 0
17 18 0
-17 -18 0
17 19 0
-17 -19 0
17 20 0
-17 -20 0
17 26 0
-17 -26 0
17 27 0
-17 -27 0
17 28 0
-17 -28 0
17 29 0
-17 -29 0
17 30 0
-17 -30 0
17 31 0
-17 -31 0
17 32 0
-17 -32 0
17 35 0
-17 -35 0
17 39 0
-17 -39 0
18 19 0
-18 -19 0
18 20 0
-18 -20 0
18 22 0
-18 -22 0
18 23 0
-18 -23 0
18 24 0
-18 -24 0
18 25 0
-18 -25 0
18 26 0
-18 -26 0
18 27 0
-18 -27 0
18 30 0
-18 -30 0
18 33 0
-18 -33 0
18 35 0
-18 -35 0
18 37 0
-18 -37 0
18 38 0
-18 -38 0
19 20 0
-19 -20 0
19 24 0
-19 -24 0
19 25 0
-19 -25 0
19 27 0
-19 -27 0
19 33 0
-19 -33 0
19 36 0
-19 -36 0
19 37 0
-19 -37 0
19 40 0
-19 -40 0
20 22 0
-20 -22 0
20 23 0
-20 -23 0
20 28 0
-20 -28 0
20 30 0
-20 -30 0
20 31 0
-20 -31 0
20 32 0
-20 -32 0
20 34 0
-20 -34 0
20 35 0
-20 -35 0
20 37 0
-20 -37 0
21 22 0
-21 -22 0
21 23 0
-21 -23 0
21 25 0
-21 -25 0
21 26 0
-21 -26 0
21 28 0
-21 -28 0
21 30 0
-21 -30 0
21 34 0
-21 -34 0
21 38 0
-21 -38 0
21 40 0
-21 -40 0
22 24 0
-22 -24 0
22 25 0
-22 -25 0
22 26 0
-22 -26 0
22 28 0
-22 -28 0
22 29 0
-22 -29 0
22 30 0
-22 -30 0
22 33 0
-22 -33 0
22 34 0
-22 -34 0
22 35 0
-22 -35 0
22 36 0
-22 -36 0
22 38 0
-22 -38 0
22 40 0
-22 -40 0
23 24 0
-23 -24 0
23 25 0
-23 -25 0
23 27 0
-23 -27 0
23 29 0
-23 -29 0
23 32 0
-23 -32 0
23 33 0
-23 -33 0
23 34 0
-23 -34 0
23 35 0
-23 -35 0
23 37 0
-23 -37 0
23 40 0
-23 -40 0
24 25 0
-24 -25 0
24 26 0
-24 -26 0
24 28 0
-24 -28 0
24 29 0
-24 -29 0
24 31 0
-24 -31 0
24 32 0
-24 -32 0
24 33 0
-24 -33 0
24 35 0
-24 -35 0
24 37 0
-24 -37 0
24 38 0
-24 -38 0
24 39 0
-24 -39 0
25 26 0
-25 -26 0
25 30 0
-25 -30 0
25 31 0
-25 -31 0
25 32 0
-25 -32 0
25 33 0
-25 -33 0
25 37 0
-25 -37 0
26 27 0
-26 -27 0
26 29 0
-26 -29 0
26 31 0
-26 -31 0
26 33 0
-26 -33 0
26 34 0
-26 -34 0
26 35 0
-26 -35 0
26 37 0
-26 -37 0
26 39 0
-26 -39 0
27 30 0
-27 -30 0
27 31 0
-27 -31 0
27 35 0
-27 -35 0
27 37 0
-27 -37 0
27 39 0
-27 -39 0
28 31 0
-28 -31 0
28 33 0
-28 -33 0
28 34 0
-28 -34 0
28 35 0
-28 -35 0
28 36 0
-28 -36 0
28 37 0
-28 -37 0
28 40 0
-28 -40 0
29 36 0
-29 -36 0
29 38 0
-29 -38 0
30 31 0
-30 -31 0
30 36 0
-30 -36 0
30 37 0
-30 -37 0
30 39 0
-30 -39 0
31 36 0
-31 -36 0
31 37 0
-31 -37 0
31 38 0
-31 -38 0
31 40 0
-31 -40 0
32 34 0
-32 -34 0
32 36 0
-32 -36 0
32 39 0
-32 -39 0
32 40 0
-32 -40 0
33 35 0
-33 -35 0
33 37 0
-33 -37 0
33 38 0
-33 -38 0
34 37 0
-34 -37 0
34 39 0
-34 -39 0
35 38 0
-35 -38 0
35 39 0
-35 -39 0
35 40 0
-35 -40 0
36 37 0
-36 -37 0
37 39 0
-37 -39 0
37 40 0
-37 -40 0
